Problem:    
Rows:       135
Columns:    53 (40 integer, 40 binary)
Non-zeros:  413
Status:     INTEGER OPTIMAL
Objective:  value = 63.379583 (MINimum)

   No.   Row name        Activity     Lower bound   Upper bound
------ ------------    ------------- ------------- -------------
     1 r.5                         1             1             = 
     2 r.6                   1063.38             0               
     3 r.7                   -936.62      -999.061               
     4 r.8                   63.3796             0               
     5 r.9                   63.3796      -998.166               
     6 r.10                  1063.38             0               
     7 r.11                 -937.559      -995.858               
     8 r.12                  63.3796             0               
     9 r.13                  63.3796      -995.291               
    10 r.14                  63.3796             0               
    11 r.15                  63.3796       -934.03               
    12 r.16                  1063.38             0               
    13 r.17                  -936.62      -937.127               
    14 r.18                  1063.38             0               
    15 r.19                 -941.701      -992.994               
    16 r.20                  63.3796             0               
    17 r.21                 -941.045      -992.338               
    18 r.22                  1063.38             0               
    19 r.23                 -948.706      -994.144               
    20 r.24                  63.3796             0               
    21 r.25                  51.2935      -993.683               
    22 r.26                  1063.38             0               
    23 r.27                 -999.493      -999.493               
    24 r.28                  63.3796             0               
    25 r.29                 0.506645      -997.817               
    26 r.30                        1             1             = 
    27 r.31                        1             1             = 
    28 r.32                        1             1             = 
    29 r.33                        1             1             = 
    30 r.34                        1             1             = 
    31 r.35                        1             1             = 
    32 r.36                        2             2               
    33 r.37                       -2         -1001               
    34 r.38                -0.938711      -995.858               
    35 r.39                     1000             2               
    36 r.40                    -1000         -1001               
    37 r.41                     2000      -995.291               
    38 r.42                     1001             2               
    39 r.43                    -1001         -1001               
    40 r.44                     2000       -934.03               
    41 r.45                     1001             2               
    42 r.46                    -1001         -1001               
    43 r.47                     2000      -937.127               
    44 r.48                        2             2               
    45 r.49                       -2         -1001               
    46 r.50                 -5.08047      -992.994               
    47 r.51                     1000             2               
    48 r.52                    -1000         -1001               
    49 r.53                  995.576      -992.338               
    50 r.54                        2             2               
    51 r.55                       -2         -1001               
    52 r.56                 -12.0861      -994.144               
    53 r.57                     1000             2               
    54 r.58                    -1000         -1001               
    55 r.59                  1987.91      -993.683               
    56 r.60                 -937.127      -999.061               
    57 r.61                  62.8729      -998.166               
    58 r.62                 -937.127      -999.061               
    59 r.63                  62.8729      -998.166               
    60 r.64                        2             2               
    61 r.65                       -2         -1001               
    62 r.66                 0.938711      0.938711               
    63 r.67                     1000             2               
    64 r.68                    -1000         -1001               
    65 r.69                     2000       1.83375               
    66 r.70                     1001             2               
    67 r.71                    -1001         -1001               
    68 r.72                  2000.94       -934.03               
    69 r.73                     1001             2               
    70 r.74                    -1001         -1001               
    71 r.75                     2000      -937.127               
    72 r.76                 -995.858      -995.858               
    73 r.77                  5.08047      -995.291               
    74 r.78                  3.48577      -995.858               
    75 r.79                  1004.42      -995.291               
    76 r.80                     1001             2               
    77 r.81                    -1001         -1001               
    78 r.82                     2000      0.938711               
    79 r.83                     1001             2               
    80 r.84                    -1001         -1001               
    81 r.85                     2000       1.83375               
    82 r.86                     1001             2               
    83 r.87                    -1001         -1001               
    84 r.88                  1999.06       4.14176               
    85 r.89                     1001             2               
    86 r.90                    -1001         -1001               
    87 r.91                     2000       4.70911               
    88 r.92                     1001             2               
    89 r.93                    -1001         -1001               
    90 r.94                  1994.92      -992.994               
    91 r.95                     1001             2               
    92 r.96                    -1001         -1001               
    93 r.97                  995.576      -992.338               
    94 r.98                     1001             2               
    95 r.99                    -1001         -1001               
    96 r.100                 1987.91      -994.144               
    97 r.101                    1001             2               
    98 r.102                   -1001         -1001               
    99 r.103                 1987.91      -993.683               
   100 r.104                 62.8729       -934.03               
   101 r.105                -937.127      -937.127               
   102 r.106                 62.8729       -934.03               
   103 r.107                -937.127      -937.127               
   104 r.108                       2             2               
   105 r.109                      -2         -1001               
   106 r.110                 5.08047      0.938711               
   107 r.111                    1000             2               
   108 r.112                   -1000         -1001               
   109 r.113                 3004.42       1.83375               
   110 r.114                    1001             2               
   111 r.115                   -1001         -1001               
   112 r.116                 2005.08       65.9696               
   113 r.117                    1001             2               
   114 r.118                   -1001         -1001               
   115 r.119                 3004.42       62.8729               
   116 r.120                -992.994      -992.994               
   117 r.121                -992.338      -992.338               
   118 r.122                -992.994      -992.994               
   119 r.123                -992.338      -992.338               
   120 r.124                       2             2               
   121 r.125                      -2         -1001               
   122 r.126                 12.0861      0.938711               
   123 r.127                    1000             2               
   124 r.128                   -1000         -1001               
   125 r.129                 2012.09       1.83375               
   126 r.130                    1001             2               
   127 r.131                   -1001         -1001               
   128 r.132                 2012.09       65.9696               
   129 r.133                    1001             2               
   130 r.134                   -1001         -1001               
   131 r.135                 2012.09       62.8729               
   132 r.136                -949.213      -994.144               
   133 r.137                 50.7869      -993.683               
   134 r.138                -949.213      -994.144               
   135 r.139                 50.7869      -993.683               

   No. Column name       Activity     Lower bound   Upper bound
------ ------------    ------------- ------------- -------------
     1 tt                    63.3796             0               
     2 s_1_6        *              1             0             1 
     3 s_1_1        *              1             0             1 
     4 t_1_1                       0             0               
     5 s_2_1        *              0             0             1 
     6 t_2_1                       0             0               
     7 s_1_2        *              1             0             1 
     8 t_1_2                0.938711             0               
     9 s_2_2        *              0             0             1 
    10 t_2_2                       0             0               
    11 s_1_3        *              0             0             1 
    12 t_1_3                       0             0               
    13 s_2_3        *              1             0             1 
    14 t_2_3                       0             0               
    15 s_1_4        *              1             0             1 
    16 t_1_4                 5.08047             0               
    17 s_2_4        *              0             0             1 
    18 t_2_4                 1004.42             0               
    19 s_1_5        *              1             0             1 
    20 t_1_5                 12.0861             0               
    21 s_2_5        *              0             0             1 
    22 t_2_5                 12.0861             0               
    23 t_1_6                 62.8729             0               
    24 s_2_6        *              0             0             1 
    25 t_2_6                 62.8729             0               
    26 r_1_1_2      *              0             0             1 
    27 u_1_1_2      *              0             0             1 
    28 r_2_1_2      *              1             0             1 
    29 u_2_1_2      *              0             0             1 
    30 r_1_1_3      *              1             0             1 
    31 u_1_1_3      *              0             0             1 
    32 r_2_1_3      *              1             0             1 
    33 u_2_1_3      *              0             0             1 
    34 r_1_1_4      *              0             0             1 
    35 u_1_1_4      *              0             0             1 
    36 r_2_1_4      *              1             0             1 
    37 u_2_1_4      *              0             0             1 
    38 r_1_1_5      *              0             0             1 
    39 u_1_1_5      *              0             0             1 
    40 r_2_1_5      *              1             0             1 
    41 u_2_1_5      *              0             0             1 
    42 r_1_2_3      *              1             0             1 
    43 u_1_2_3      *              0             0             1 
    44 r_2_2_3      *              1             0             1 
    45 u_2_2_3      *              0             0             1 
    46 r_1_3_4      *              1             0             1 
    47 u_1_3_4      *              0             0             1 
    48 r_2_3_4      *              1             0             1 
    49 u_2_3_4      *              0             0             1 
    50 r_1_3_5      *              1             0             1 
    51 u_1_3_5      *              0             0             1 
    52 r_2_3_5      *              1             0             1 
    53 u_2_3_5      *              0             0             1 

Integer feasibility conditions:

KKT.PE: max.abs.err = 0.00e+00 on row 0
        max.rel.err = 0.00e+00 on row 0
        High quality

KKT.PB: max.abs.err = 2.27e-13 on row 117
        max.rel.err = 2.29e-16 on row 117
        High quality

End of output
